p cnf 1157 2673
a 1 2 3 4 5 6 7 8 9 10 11 12 13 14 15 16 17 19 20 21 22 23 24 25 26 27 28 29 30 31 32 33 34 35 36 37 38 39 40 41 42 43 44 45 46 47 48 49 50 51 52 53 57 58 59 60 61 62 66 70 71 72 73 74 75 78 79 80 83 84 0
e 18 54 55 56 63 64 65 67 68 69 76 77 81 82 85 86 87 88 89 90 91 92 93 94 95 96 97 98 99 100 101 102 103 104 105 106 107 108 109 110 111 112 113 114 115 116 117 118 119 120 121 122 123 124 125 126 127 128 129 130 131 132 133 134 135 136 137 138 139 140 141 142 143 144 145 146 147 148 149 150 151 152 153 154 155 156 157 158 159 160 161 162 163 164 165 166 167 168 169 170 171 172 173 174 175 176 177 178 179 180 181 182 183 184 185 186 187 188 189 190 191 192 193 194 195 196 197 198 199 200 201 202 203 204 205 206 207 208 209 210 211 212 213 214 215 216 217 218 219 220 221 222 223 224 225 226 227 228 229 230 231 232 233 234 235 236 237 238 239 240 241 242 243 244 245 246 247 248 249 250 251 252 253 254 255 256 257 258 259 260 261 262 263 264 265 266 267 268 269 270 271 272 273 274 275 276 277 278 279 280 281 282 283 284 285 286 287 288 289 290 291 292 293 294 295 296 297 298 299 300 301 302 303 304 305 306 307 308 309 310 311 312 313 314 315 316 317 318 319 320 321 322 323 324 325 326 327 328 329 330 331 332 333 334 335 336 337 338 339 340 341 342 343 344 345 346 347 348 349 350 351 352 353 354 355 356 357 358 359 360 361 362 363 364 365 366 367 368 369 370 371 372 373 374 375 376 377 378 379 380 381 382 383 384 385 386 387 388 389 390 391 392 393 394 395 396 397 398 399 400 401 402 403 404 405 406 407 408 409 410 411 412 413 414 415 416 417 418 419 420 421 422 423 424 425 426 427 428 429 430 431 432 433 434 435 436 437 438 439 440 441 442 443 444 445 446 447 448 449 450 451 452 453 454 455 456 457 458 459 460 461 462 463 464 465 466 467 468 469 470 471 472 473 474 475 476 477 478 479 480 481 482 483 484 485 486 487 488 489 490 491 492 493 494 495 496 497 498 499 500 501 502 503 504 505 506 507 508 509 510 511 512 513 514 515 516 517 518 519 520 521 522 523 524 525 526 527 528 529 530 531 532 533 534 535 536 537 538 539 540 541 542 543 544 545 546 547 548 549 550 551 552 553 554 555 556 557 558 559 560 561 562 563 564 565 566 567 568 569 570 571 572 573 574 575 576 577 578 579 580 581 582 583 584 585 586 587 588 589 590 591 592 593 594 595 596 597 598 599 600 601 602 603 604 605 606 607 608 609 610 611 612 613 614 615 616 617 618 619 620 621 622 623 624 625 626 627 628 629 630 631 632 633 634 635 636 637 638 639 640 641 642 643 644 645 646 647 648 649 650 651 652 653 654 655 656 657 658 659 660 661 662 663 664 665 666 667 668 669 670 671 672 673 674 675 676 677 678 679 680 681 682 683 684 685 686 687 688 689 690 691 692 693 694 695 696 697 698 699 700 701 702 703 704 705 706 707 708 709 710 711 712 713 714 715 716 717 718 719 720 721 722 723 724 725 726 727 728 729 730 731 732 733 734 735 736 737 738 739 740 741 742 743 744 745 746 747 748 749 750 751 752 753 754 755 756 757 758 759 760 761 762 763 764 765 766 767 768 769 770 771 772 773 774 775 776 777 778 779 780 781 782 783 784 785 786 787 788 789 790 791 792 793 794 795 796 797 798 799 800 801 802 803 804 805 806 807 808 809 810 811 812 813 814 815 816 817 818 819 820 821 822 823 824 825 826 827 828 829 830 831 832 833 834 835 836 837 838 839 840 841 842 843 844 845 846 847 848 849 850 851 852 853 854 855 856 857 858 859 860 861 862 863 864 865 866 867 868 869 870 871 872 873 874 875 876 877 878 879 880 881 882 883 884 885 886 887 888 889 890 891 892 893 894 895 896 897 898 899 900 901 902 903 904 905 906 907 908 909 910 911 912 913 914 915 916 917 918 919 920 921 922 923 924 925 926 927 928 929 930 931 932 933 934 935 936 937 938 939 940 941 942 943 944 945 946 947 948 949 950 951 952 953 954 955 956 957 958 959 960 961 962 963 964 965 966 967 968 969 970 971 972 973 974 975 976 977 978 979 980 981 982 983 984 985 986 987 988 989 990 991 992 993 994 995 996 997 998 999 1000 1001 1002 1003 1004 1005 1006 1007 1008 1009 1010 1011 1012 1013 1014 1015 1016 1017 1018 1019 1020 1021 1022 1023 1024 1025 1026 1027 1028 1029 1030 1031 1032 1033 1034 1035 1036 1037 1038 1039 1040 1041 1042 1043 1044 1045 1046 1047 1048 1049 1050 1051 1052 1053 1054 1055 1056 1057 1058 1059 1060 1061 1062 1063 1064 1065 1066 1067 1068 1069 1070 1071 1072 1073 1074 1075 1076 1077 1078 1079 1080 1081 1082 1083 1084 1085 1086 1087 1088 1089 1090 1091 1092 1093 1094 1095 1096 1097 1098 1099 1100 1101 1102 1103 1104 1105 1106 1107 1108 1109 1110 1111 1112 1113 1114 1115 1116 1117 1118 1119 1120 1121 1122 1123 1124 1125 1126 1127 1128 1129 1130 1131 1132 1133 1134 1135 1136 1137 1138 1139 1140 1141 1142 1143 1144 1145 1146 1147 1148 1149 1150 1151 1152 1153 1154 1155 1156 1157 0
-1157 0
1157 -973 0
1157 -1036 0
1157 -1097 0
1157 -1156 0
3 2 1 -972 -1155 1156 0
1155 -1125 0
1155 -1154 0
-1153 -610 -609 -601 -583 1154 0
1153 -1128 0
1153 -1131 0
1153 -1134 0
1153 -1152 0
-1151 -1086 -1021 -927 1152 0
1151 -1150 0
1151 -667 0
1151 -668 0
1151 -669 0
1151 -670 0
-1149 -1144 -1139 1150 0
1149 -1145 0
1149 -1146 0
1149 -829 0
1149 -830 0
1149 -621 0
1149 -622 0
1149 -1147 0
1149 -1148 0
1149 -44 0
1149 -43 0
1149 -42 0
1149 -41 0
1149 -40 0
1149 -39 0
1149 -38 0
-10 -18 1148 0
-7 18 1147 0
-18 -49 1146 0
18 -46 1145 0
1144 -822 0
1144 -1140 0
1144 -612 0
1144 -613 0
1144 -1141 0
1144 -1142 0
1144 -1143 0
1144 -825 0
1144 -31 0
1144 -30 0
1144 -29 0
1144 -28 0
1144 -27 0
1144 -26 0
1144 -25 0
-6 18 1143 0
-8 -18 1142 0
-18 -36 1141 0
-33 18 1140 0
1139 -1135 0
1139 -1136 0
1139 -815 0
1139 -630 0
1139 -631 0
1139 -1137 0
1139 -818 0
1139 -1138 0
1139 -17 0
1139 -16 0
1139 -15 0
1139 -14 0
1139 -13 0
1139 -12 0
1139 -11 0
-9 -18 1138 0
-5 18 1137 0
-18 -23 1136 0
-20 18 1135 0
-792 -925 -791 -774 -923 -1133 -1132 1134 0
1133 -962 0
1133 -931 0
1132 -814 0
1132 -947 0
-813 -812 -811 -810 -757 -1130 -1129 1131 0
1130 -962 0
1130 -901 0
1129 -933 0
1129 -926 0
-733 -716 -671 -961 -960 -1127 -1126 1128 0
1127 -887 0
1127 -926 0
1126 -814 0
1126 -966 0
-1124 -1121 -1118 -1115 -169 1125 0
1124 -1122 0
1124 -1123 0
1124 -466 0
1124 -467 0
1124 -519 0
1124 -520 0
1124 -468 0
-460 -507 1123 0
-525 -479 1122 0
1121 -1119 0
1121 -1120 0
1121 -504 0
1121 -506 0
1121 -471 0
1121 -472 0
1121 -473 0
-521 -511 1120 0
-516 -479 1119 0
1118 -1116 0
1118 -1117 0
1118 -470 0
1118 -475 0
1118 -476 0
1118 -477 0
1118 -478 0
-521 -484 1117 0
-507 -373 1116 0
1115 -508 0
1115 -1000 0
1115 -1057 0
1115 -1114 0
-229 -228 -227 -226 -1113 1114 0
1113 -1102 0
1113 -1107 0
1113 -1112 0
39 38 43 40 44 42 41 -1111 -1110 -309 -308 -219 -218 -1109 -1108 1112 0
1111 10 0
1111 18 0
1110 7 0
1110 -18 0
1109 49 0
1109 18 0
1108 46 0
1108 -18 0
25 28 31 30 29 27 26 -212 -1106 -1105 -1104 -302 -301 -1103 -209 1107 0
1106 6 0
1106 -18 0
1105 8 0
1105 18 0
1104 36 0
1104 18 0
1103 33 0
1103 -18 0
13 17 16 15 14 12 11 -1101 -203 -1100 -295 -294 -199 -1099 -1098 1102 0
1101 18 0
1101 9 0
1100 5 0
1100 -18 0
1099 18 0
1099 23 0
1098 20 0
1098 -18 0
4 2 1 -972 -1096 1097 0
1096 -1065 0
1096 -1095 0
-1094 -610 -609 -601 -583 1095 0
1094 -1068 0
1094 -1087 0
1094 -1090 0
1094 -1093 0
-941 -940 -939 -1092 -1091 -952 -950 1093 0
1092 -957 0
1092 -966 0
1091 -882 0
1091 -947 0
-946 -945 -944 -943 -938 -1089 -1088 1090 0
1089 -931 0
1089 -966 0
1088 -926 0
1088 -953 0
-1022 -948 -1086 -1085 1087 0
1086 -814 0
1086 -953 0
1085 -1084 0
1085 -667 0
1085 -668 0
1085 -669 0
1085 -670 0
-1083 -1078 -1073 1084 0
1083 -672 0
1083 -1079 0
1083 -675 0
1083 -698 0
1083 -1080 0
1083 -1081 0
1083 -1082 0
1083 -699 0
1083 -72 0
1083 -52 0
1083 -17 0
1083 -16 0
1083 -15 0
1083 -14 0
1083 -11 0
-9 -56 1082 0
-5 56 1081 0
-23 -56 1080 0
-20 56 1079 0
1078 -686 0
1078 -1074 0
1078 -689 0
1078 -712 0
1078 -1075 0
1078 -713 0
1078 -1076 0
1078 -1077 0
1078 -74 0
1078 -61 0
1078 -44 0
1078 -43 0
1078 -42 0
1078 -41 0
1078 -38 0
-10 -56 1077 0
-7 56 1076 0
-49 -56 1075 0
-46 56 1074 0
1073 -679 0
1073 -1069 0
1073 -682 0
1073 -1070 0
1073 -705 0
1073 -1071 0
1073 -1072 0
1073 -706 0
1073 -73 0
1073 -58 0
1073 -31 0
1073 -30 0
1073 -29 0
1073 -28 0
1073 -25 0
-6 56 1072 0
-36 -56 1071 0
-8 -56 1070 0
-33 56 1069 0
-936 -965 -964 -935 -934 -1067 -1066 1068 0
1067 -887 0
1067 -947 0
1066 -962 0
1066 -953 0
-1064 -1061 -1058 -1039 -169 1065 0
1064 -1062 0
1064 -523 0
1064 -524 0
1064 -1063 0
1064 -396 0
1064 -397 0
1064 -398 0
-460 -516 1063 0
-521 -441 1062 0
1061 -1059 0
1061 -1060 0
1061 -513 0
1061 -417 0
1061 -434 0
1061 -515 0
1061 -435 0
-525 -511 1060 0
-441 -507 1059 0
1058 -1056 0
1058 -1057 0
1058 -517 0
1058 -1001 0
-441 -479 1057 0
-229 -228 -227 -226 -1055 1056 0
1055 -1044 0
1055 -1049 0
1055 -1054 0
17 16 15 14 11 52 72 -256 -1053 -1052 -1051 -255 -236 -1050 -232 1054 0
1053 56 0
1053 9 0
1052 -56 0
1052 5 0
1051 56 0
1051 23 0
1050 -56 0
1050 20 0
38 61 43 74 44 42 41 -1048 -1047 -272 -1046 -271 -250 -1045 -247 1049 0
1048 56 0
1048 10 0
1047 -56 0
1047 7 0
1046 49 0
1046 56 0
1045 46 0
1045 -56 0
25 28 31 30 29 58 73 -263 -1043 -1042 -262 -1041 -243 -1040 -239 1044 0
1043 -56 0
1043 6 0
1042 56 0
1042 36 0
1041 56 0
1041 8 0
1040 -56 0
1040 33 0
1039 -1037 0
1039 -1038 0
1039 -400 0
1039 -437 0
1039 -438 0
1039 -439 0
1039 -440 0
-525 -456 1038 0
-516 -465 1037 0
4 3 2 -972 -1035 1036 0
1035 -1003 0
1035 -1034 0
-1033 -610 -609 -601 -583 1034 0
1033 -1023 0
1033 -1026 0
1033 -1029 0
1033 -1032 0
-890 -956 -955 -889 -888 -1031 -1030 1032 0
1031 -931 0
1031 -882 0
1030 -901 0
1030 -953 0
-895 -894 -893 -930 -928 -1028 -1027 1029 0
1028 -901 0
1028 -947 0
1027 -926 0
1027 -957 0
-900 -899 -898 -897 -892 -1025 -1024 1026 0
1025 -933 0
1025 -931 0
1024 -814 0
1024 -957 0
-1022 -932 -1021 -1020 1023 0
1022 -901 0
1022 -966 0
1021 -962 0
1021 -957 0
1020 -1019 0
1020 -667 0
1020 -668 0
1020 -669 0
1020 -670 0
-1018 -1013 -1008 1019 0
1018 -752 0
1018 -660 0
1018 -1014 0
1018 -661 0
1018 -753 0
1018 -1015 0
1018 -1016 0
1018 -1017 0
1018 -84 0
1018 -74 0
1018 -71 0
1018 -61 0
1018 -44 0
1018 -43 0
1018 -38 0
-10 -69 1017 0
-7 69 1016 0
-49 -69 1015 0
-46 69 1014 0
1013 -744 0
1013 -649 0
1013 -1009 0
1013 -650 0
1013 -1010 0
1013 -745 0
1013 -1011 0
1013 -1012 0
1013 -83 0
1013 -73 0
1013 -70 0
1013 -58 0
1013 -31 0
1013 -30 0
1013 -25 0
-8 -69 1012 0
-36 -69 1011 0
-6 69 1010 0
-33 69 1009 0
1008 -640 0
1008 -1004 0
1008 -641 0
1008 -1005 0
1008 -735 0
1008 -1006 0
1008 -736 0
1008 -1007 0
1008 -80 0
1008 -72 0
1008 -66 0
1008 -52 0
1008 -17 0
1008 -16 0
1008 -11 0
-9 -69 1007 0
-23 -69 1006 0
-5 69 1005 0
-20 69 1004 0
-1002 -982 -979 -976 -169 1003 0
1002 -999 0
1002 -1000 0
1002 -512 0
1002 -1001 0
-525 -484 1001 0
-521 -456 1000 0
-229 -228 -227 -226 -998 999 0
998 -987 0
998 -992 0
998 -997 0
38 61 43 74 71 84 44 -996 -995 -994 -993 -192 -217 -191 -216 997 0
996 69 0
996 10 0
995 -69 0
995 7 0
994 49 0
994 69 0
993 46 0
993 -69 0
25 31 30 58 73 70 83 -991 -990 -181 -989 -208 -988 -180 -207 992 0
991 69 0
991 8 0
990 -69 0
990 33 0
989 -69 0
989 6 0
988 69 0
988 36 0
17 16 11 52 66 72 80 -986 -200 -985 -172 -984 -198 -983 -171 987 0
986 69 0
986 9 0
985 -69 0
985 20 0
984 -69 0
984 5 0
983 69 0
983 23 0
982 -980 0
982 -981 0
982 -509 0
982 -443 0
982 -444 0
982 -510 0
982 -445 0
-516 -484 981 0
-507 -456 980 0
979 -977 0
979 -978 0
979 -482 0
979 -483 0
979 -448 0
979 -449 0
979 -450 0
-511 -373 978 0
-479 -456 977 0
976 -974 0
976 -975 0
976 -447 0
976 -452 0
976 -453 0
976 -454 0
976 -455 0
-511 -465 975 0
-441 -484 974 0
4 3 1 -972 -971 973 0
972 -4 0
972 -3 0
972 -2 0
972 -1 0
971 -528 0
971 -970 0
-969 -610 -609 -601 -583 970 0
969 -905 0
969 -949 0
969 -959 0
969 -968 0
-873 -872 -855 -886 -885 -967 -963 968 0
967 -933 0
967 -966 0
-936 -965 -964 -935 -934 966 0
965 -942 0
965 -732 0
965 -667 0
965 -668 0
965 -669 0
965 -670 0
964 -951 0
964 -666 0
964 -667 0
964 -668 0
964 -669 0
964 -670 0
963 -962 0
963 -882 0
-733 -716 -671 -961 -960 962 0
961 -924 0
961 -715 0
961 -667 0
961 -668 0
961 -669 0
961 -670 0
960 -793 0
960 -666 0
960 -667 0
960 -668 0
960 -669 0
960 -670 0
-881 -880 -875 -854 -837 -958 -954 959 0
958 -887 0
958 -957 0
-890 -956 -955 -889 -888 957 0
956 -929 0
956 -853 0
956 -667 0
956 -668 0
956 -669 0
956 -670 0
955 -896 0
955 -871 0
955 -667 0
955 -668 0
955 -669 0
955 -670 0
954 -933 0
954 -953 0
-941 -940 -939 -952 -950 953 0
952 -951 0
952 -871 0
952 -667 0
952 -668 0
952 -669 0
952 -670 0
-946 -945 -944 951 0
950 -937 0
950 -836 0
950 -667 0
950 -668 0
950 -669 0
950 -670 0
-948 -932 -927 -922 949 0
948 -933 0
948 -947 0
-946 -945 -944 -943 -938 947 0
946 -790 0
946 -667 0
946 -668 0
946 -669 0
946 -670 0
945 -638 0
945 -853 0
945 -667 0
945 -668 0
945 -669 0
945 -670 0
944 -773 0
944 -715 0
944 -667 0
944 -668 0
944 -669 0
944 -670 0
943 -638 0
943 -942 0
943 -667 0
943 -668 0
943 -669 0
943 -670 0
-941 -940 -939 942 0
941 -853 0
941 -667 0
941 -668 0
941 -669 0
941 -670 0
940 -790 0
940 -871 0
940 -667 0
940 -668 0
940 -669 0
940 -670 0
939 -715 0
939 -836 0
939 -667 0
939 -668 0
939 -669 0
939 -670 0
938 -937 0
938 -773 0
938 -667 0
938 -668 0
938 -669 0
938 -670 0
-936 -935 -934 937 0
936 -715 0
936 -667 0
936 -668 0
936 -669 0
936 -670 0
935 -732 0
935 -853 0
935 -667 0
935 -668 0
935 -669 0
935 -670 0
934 -666 0
934 -790 0
934 -667 0
934 -668 0
934 -669 0
934 -670 0
-878 -877 -876 -904 -903 933 0
932 -887 0
932 -931 0
-895 -894 -893 -930 -928 931 0
930 -929 0
930 -790 0
930 -667 0
930 -668 0
930 -669 0
930 -670 0
-900 -899 -898 929 0
928 -891 0
928 -638 0
928 -667 0
928 -668 0
928 -669 0
928 -670 0
927 -926 0
927 -882 0
-792 -925 -791 -774 -923 926 0
925 -924 0
925 -790 0
925 -667 0
925 -668 0
925 -669 0
925 -670 0
-813 -812 -811 924 0
923 -734 0
923 -773 0
923 -667 0
923 -668 0
923 -669 0
923 -670 0
922 -921 0
922 -667 0
922 -668 0
922 -669 0
922 -670 0
-920 -915 -910 921 0
920 -629 0
920 -645 0
920 -916 0
920 -634 0
920 -646 0
920 -917 0
920 -918 0
920 -919 0
920 -72 0
920 -52 0
920 -17 0
920 -16 0
920 -15 0
920 -14 0
920 -11 0
-9 -65 919 0
-5 65 918 0
-23 -65 917 0
-20 65 916 0
915 -620 0
915 -663 0
915 -911 0
915 -912 0
915 -913 0
915 -625 0
915 -664 0
915 -914 0
915 -74 0
915 -61 0
915 -44 0
915 -43 0
915 -42 0
915 -41 0
915 -38 0
-49 -65 914 0
-46 65 913 0
-10 -65 912 0
-7 65 911 0
910 -611 0
910 -654 0
910 -906 0
910 -616 0
910 -655 0
910 -907 0
910 -908 0
910 -909 0
910 -73 0
910 -58 0
910 -31 0
910 -30 0
910 -29 0
910 -28 0
910 -25 0
-6 65 909 0
-8 -65 908 0
-36 -65 907 0
-33 65 906 0
-878 -877 -876 -904 -903 -902 -883 905 0
904 -874 0
904 -756 0
904 -667 0
904 -668 0
904 -669 0
904 -670 0
903 -884 0
903 -693 0
903 -667 0
903 -668 0
903 -669 0
903 -670 0
902 -887 0
902 -901 0
-900 -899 -898 -897 -892 901 0
900 -693 0
900 -836 0
900 -667 0
900 -668 0
900 -669 0
900 -670 0
899 -809 0
899 -773 0
899 -667 0
899 -668 0
899 -669 0
899 -670 0
898 -756 0
898 -667 0
898 -668 0
898 -669 0
898 -670 0
897 -896 0
897 -809 0
897 -667 0
897 -668 0
897 -669 0
897 -670 0
-895 -894 -893 896 0
895 -773 0
895 -667 0
895 -668 0
895 -669 0
895 -670 0
894 -638 0
894 -836 0
894 -667 0
894 -668 0
894 -669 0
894 -670 0
893 -756 0
893 -790 0
893 -667 0
893 -668 0
893 -669 0
893 -670 0
892 -891 0
892 -693 0
892 -667 0
892 -668 0
892 -669 0
892 -670 0
-890 -889 -888 891 0
890 -836 0
890 -667 0
890 -668 0
890 -669 0
890 -670 0
889 -773 0
889 -871 0
889 -667 0
889 -668 0
889 -669 0
889 -670 0
888 -756 0
888 -853 0
888 -667 0
888 -668 0
888 -669 0
888 -670 0
-873 -872 -855 -886 -885 887 0
886 -879 0
886 -715 0
886 -667 0
886 -668 0
886 -669 0
886 -670 0
885 -884 0
885 -732 0
885 -667 0
885 -668 0
885 -669 0
885 -670 0
-881 -854 -837 884 0
883 -814 0
883 -882 0
-881 -880 -875 -854 -837 882 0
881 -871 0
881 -667 0
881 -668 0
881 -669 0
881 -670 0
880 -879 0
880 -853 0
880 -667 0
880 -668 0
880 -669 0
880 -670 0
-878 -877 -876 879 0
878 -809 0
878 -667 0
878 -668 0
878 -669 0
878 -670 0
877 -693 0
877 -871 0
877 -667 0
877 -668 0
877 -669 0
877 -670 0
876 -756 0
876 -666 0
876 -667 0
876 -668 0
876 -669 0
876 -670 0
875 -874 0
875 -836 0
875 -667 0
875 -668 0
875 -669 0
875 -670 0
-873 -872 -855 874 0
873 -666 0
873 -667 0
873 -668 0
873 -669 0
873 -670 0
872 -732 0
872 -871 0
872 -667 0
872 -668 0
872 -669 0
872 -670 0
-870 -865 -860 871 0
870 -829 0
870 -830 0
870 -866 0
870 -867 0
870 -868 0
870 -869 0
870 -663 0
870 -664 0
870 -61 0
870 -60 0
870 -44 0
870 -43 0
870 -42 0
870 -41 0
870 -39 0
-49 -64 869 0
-46 64 868 0
-10 -63 867 0
-7 63 866 0
865 -822 0
865 -861 0
865 -862 0
865 -825 0
865 -654 0
865 -655 0
865 -863 0
865 -864 0
865 -58 0
865 -57 0
865 -31 0
865 -30 0
865 -29 0
865 -28 0
865 -26 0
-6 63 864 0
-8 -63 863 0
-36 -64 862 0
-33 64 861 0
860 -815 0
860 -856 0
860 -857 0
860 -818 0
860 -645 0
860 -646 0
860 -858 0
860 -859 0
860 -52 0
860 -51 0
860 -17 0
860 -16 0
860 -15 0
860 -14 0
860 -12 0
-9 -63 859 0
-5 63 858 0
-23 -64 857 0
-20 64 856 0
855 -809 0
855 -715 0
855 -667 0
855 -668 0
855 -669 0
855 -670 0
854 -809 0
854 -853 0
854 -667 0
854 -668 0
854 -669 0
854 -670 0
-852 -847 -842 853 0
852 -829 0
852 -830 0
852 -848 0
852 -849 0
852 -850 0
852 -851 0
852 -712 0
852 -713 0
852 -62 0
852 -61 0
852 -60 0
852 -44 0
852 -42 0
852 -41 0
852 -39 0
-7 54 851 0
-10 -54 850 0
-49 -55 849 0
-46 55 848 0
847 -822 0
847 -843 0
847 -844 0
847 -825 0
847 -705 0
847 -706 0
847 -845 0
847 -846 0
847 -59 0
847 -58 0
847 -57 0
847 -31 0
847 -29 0
847 -28 0
847 -26 0
-6 54 846 0
-8 -54 845 0
-36 -55 844 0
-33 55 843 0
842 -815 0
842 -838 0
842 -839 0
842 -818 0
842 -698 0
842 -699 0
842 -840 0
842 -841 0
842 -53 0
842 -52 0
842 -51 0
842 -17 0
842 -15 0
842 -14 0
842 -12 0
-9 -54 841 0
-5 54 840 0
-23 -55 839 0
-20 55 838 0
837 -666 0
837 -836 0
837 -667 0
837 -668 0
837 -669 0
837 -670 0
-835 -828 -821 836 0
835 -752 0
835 -753 0
835 -829 0
835 -830 0
835 -831 0
835 -832 0
835 -833 0
835 -834 0
835 -71 0
835 -61 0
835 -60 0
835 -44 0
835 -43 0
835 -41 0
835 -39 0
-49 -68 834 0
-46 68 833 0
-10 -67 832 0
-7 67 831 0
-18 -48 830 0
18 -45 829 0
828 -744 0
828 -745 0
828 -822 0
828 -823 0
828 -824 0
828 -825 0
828 -826 0
828 -827 0
828 -70 0
828 -58 0
828 -57 0
828 -31 0
828 -30 0
828 -28 0
828 -26 0
-36 -68 827 0
-33 68 826 0
-18 -35 825 0
-6 67 824 0
-8 -67 823 0
-32 18 822 0
821 -735 0
821 -815 0
821 -736 0
821 -816 0
821 -817 0
821 -818 0
821 -819 0
821 -820 0
821 -66 0
821 -52 0
821 -51 0
821 -17 0
821 -16 0
821 -14 0
821 -12 0
-23 -68 820 0
-20 68 819 0
-19 18 818 0
-5 67 817 0
-9 -67 816 0
-18 -22 815 0
-813 -812 -811 -810 -757 814 0
813 -693 0
813 -667 0
813 -668 0
813 -669 0
813 -670 0
812 -809 0
812 -638 0
812 -667 0
812 -668 0
812 -669 0
812 -670 0
811 -756 0
811 -732 0
811 -667 0
811 -668 0
811 -669 0
811 -670 0
810 -793 0
810 -809 0
810 -667 0
810 -668 0
810 -669 0
810 -670 0
-808 -803 -798 809 0
808 -804 0
808 -805 0
808 -686 0
808 -806 0
808 -807 0
808 -663 0
808 -689 0
808 -664 0
808 -74 0
808 -62 0
808 -61 0
808 -60 0
808 -44 0
808 -42 0
808 -41 0
-10 -77 807 0
-7 77 806 0
-49 -76 805 0
-46 76 804 0
803 -799 0
803 -679 0
803 -800 0
803 -801 0
803 -802 0
803 -654 0
803 -682 0
803 -655 0
803 -73 0
803 -59 0
803 -58 0
803 -57 0
803 -31 0
803 -29 0
803 -28 0
-33 76 802 0
-6 77 801 0
-8 -77 800 0
-36 -76 799 0
798 -794 0
798 -672 0
798 -795 0
798 -796 0
798 -797 0
798 -645 0
798 -675 0
798 -646 0
798 -72 0
798 -53 0
798 -52 0
798 -51 0
798 -17 0
798 -15 0
798 -14 0
-23 -76 797 0
-9 -77 796 0
-5 77 795 0
-20 76 794 0
-792 -791 -774 793 0
792 -638 0
792 -667 0
792 -668 0
792 -669 0
792 -670 0
791 -693 0
791 -790 0
791 -667 0
791 -668 0
791 -669 0
791 -670 0
-789 -784 -779 790 0
789 -785 0
789 -786 0
789 -620 0
789 -712 0
789 -713 0
789 -787 0
789 -788 0
789 -625 0
789 -79 0
789 -74 0
789 -61 0
789 -60 0
789 -43 0
789 -42 0
789 -41 0
-10 -76 788 0
-7 76 787 0
-49 -77 786 0
-46 77 785 0
784 -780 0
784 -781 0
784 -611 0
784 -782 0
784 -783 0
784 -705 0
784 -706 0
784 -616 0
784 -78 0
784 -73 0
784 -58 0
784 -57 0
784 -30 0
784 -29 0
784 -28 0
-6 76 783 0
-8 -76 782 0
-36 -77 781 0
-33 77 780 0
779 -775 0
779 -776 0
779 -629 0
779 -777 0
779 -778 0
779 -698 0
779 -699 0
779 -634 0
779 -75 0
779 -72 0
779 -52 0
779 -51 0
779 -16 0
779 -15 0
779 -14 0
-9 -76 778 0
-5 76 777 0
-23 -77 776 0
-20 77 775 0
774 -773 0
774 -732 0
774 -667 0
774 -668 0
774 -669 0
774 -670 0
-772 -767 -762 773 0
772 -752 0
772 -753 0
772 -768 0
772 -769 0
772 -770 0
772 -620 0
772 -771 0
772 -625 0
772 -74 0
772 -71 0
772 -62 0
772 -61 0
772 -60 0
772 -44 0
772 -41 0
-7 85 771 0
-46 86 770 0
-10 -85 769 0
-49 -86 768 0
767 -744 0
767 -745 0
767 -763 0
767 -764 0
767 -765 0
767 -766 0
767 -611 0
767 -616 0
767 -73 0
767 -70 0
767 -59 0
767 -58 0
767 -57 0
767 -31 0
767 -28 0
-33 86 766 0
-36 -86 765 0
-8 -85 764 0
-6 85 763 0
762 -735 0
762 -758 0
762 -759 0
762 -760 0
762 -761 0
762 -629 0
762 -736 0
762 -634 0
762 -72 0
762 -66 0
762 -53 0
762 -52 0
762 -51 0
762 -17 0
762 -14 0
-23 -86 761 0
-20 86 760 0
-9 -85 759 0
-5 85 758 0
757 -734 0
757 -756 0
757 -667 0
757 -668 0
757 -669 0
757 -670 0
-755 -748 -741 756 0
755 -749 0
755 -750 0
755 -751 0
755 -752 0
755 -686 0
755 -753 0
755 -754 0
755 -689 0
755 -74 0
755 -71 0
755 -61 0
755 -60 0
755 -44 0
755 -43 0
755 -41 0
-49 -81 754 0
-47 69 753 0
-50 -69 752 0
-46 81 751 0
-10 -82 750 0
-7 82 749 0
748 -742 0
748 -743 0
748 -744 0
748 -679 0
748 -745 0
748 -746 0
748 -747 0
748 -682 0
748 -73 0
748 -70 0
748 -58 0
748 -57 0
748 -31 0
748 -30 0
748 -28 0
-6 82 747 0
-8 -82 746 0
-34 69 745 0
-37 -69 744 0
-36 -81 743 0
-33 81 742 0
741 -735 0
741 -672 0
741 -736 0
741 -737 0
741 -738 0
741 -739 0
741 -740 0
741 -675 0
741 -72 0
741 -66 0
741 -52 0
741 -51 0
741 -17 0
741 -16 0
741 -14 0
-23 -81 740 0
-20 81 739 0
-9 -82 738 0
-5 82 737 0
-24 -69 736 0
-21 69 735 0
-733 -716 -671 734 0
733 -732 0
733 -667 0
733 -668 0
733 -669 0
733 -670 0
-731 -726 -721 732 0
731 -660 0
731 -661 0
731 -727 0
731 -728 0
731 -621 0
731 -622 0
731 -729 0
731 -730 0
731 -84 0
731 -74 0
731 -60 0
731 -44 0
731 -43 0
731 -42 0
731 -40 0
-10 -68 730 0
-7 68 729 0
-46 67 728 0
-49 -67 727 0
726 -649 0
726 -722 0
726 -650 0
726 -723 0
726 -612 0
726 -613 0
726 -724 0
726 -725 0
726 -83 0
726 -73 0
726 -57 0
726 -31 0
726 -30 0
726 -29 0
726 -27 0
-6 68 725 0
-8 -68 724 0
-33 67 723 0
-36 -67 722 0
721 -640 0
721 -641 0
721 -630 0
721 -631 0
721 -717 0
721 -718 0
721 -719 0
721 -720 0
721 -80 0
721 -72 0
721 -51 0
721 -17 0
721 -16 0
721 -15 0
721 -13 0
-9 -68 720 0
-5 68 719 0
-20 67 718 0
-23 -67 717 0
716 -693 0
716 -715 0
716 -667 0
716 -668 0
716 -669 0
716 -670 0
-714 -707 -700 715 0
714 -708 0
714 -660 0
714 -661 0
714 -709 0
714 -710 0
714 -711 0
714 -712 0
714 -713 0
714 -84 0
714 -74 0
714 -61 0
714 -60 0
714 -44 0
714 -43 0
714 -42 0
-50 -56 713 0
-47 56 712 0
-10 -81 711 0
-7 81 710 0
-49 -82 709 0
-46 82 708 0
707 -701 0
707 -649 0
707 -650 0
707 -702 0
707 -703 0
707 -704 0
707 -705 0
707 -706 0
707 -83 0
707 -73 0
707 -58 0
707 -57 0
707 -31 0
707 -30 0
707 -29 0
-37 -56 706 0
-34 56 705 0
-6 81 704 0
-8 -81 703 0
-33 82 702 0
-36 -82 701 0
700 -640 0
700 -641 0
700 -694 0
700 -695 0
700 -696 0
700 -697 0
700 -698 0
700 -699 0
700 -80 0
700 -72 0
700 -52 0
700 -51 0
700 -17 0
700 -16 0
700 -15 0
-24 -56 699 0
-21 56 698 0
-20 82 697 0
-23 -82 696 0
-9 -81 695 0
-5 81 694 0
-692 -685 -678 693 0
692 -686 0
692 -621 0
692 -622 0
692 -687 0
692 -688 0
692 -689 0
692 -690 0
692 -691 0
692 -79 0
692 -74 0
692 -60 0
692 -43 0
692 -42 0
692 -41 0
692 -40 0
-49 -54 691 0
-46 54 690 0
-48 -56 689 0
-10 -55 688 0
-7 55 687 0
-45 56 686 0
685 -679 0
685 -612 0
685 -613 0
685 -680 0
685 -681 0
685 -682 0
685 -683 0
685 -684 0
685 -78 0
685 -73 0
685 -57 0
685 -30 0
685 -29 0
685 -28 0
685 -27 0
-36 -54 684 0
-33 54 683 0
-35 -56 682 0
-6 55 681 0
-8 -55 680 0
-32 56 679 0
678 -672 0
678 -630 0
678 -631 0
678 -673 0
678 -674 0
678 -675 0
678 -676 0
678 -677 0
678 -75 0
678 -72 0
678 -51 0
678 -16 0
678 -15 0
678 -14 0
678 -13 0
-23 -54 677 0
-20 54 676 0
-22 -56 675 0
-9 -55 674 0
-5 55 673 0
-19 56 672 0
671 -638 0
671 -666 0
671 -667 0
671 -668 0
671 -669 0
671 -670 0
-6 5 670 0
-9 8 669 0
-7 6 668 0
-8 10 667 0
-665 -656 -647 666 0
665 -657 0
665 -658 0
665 -659 0
665 -660 0
665 -661 0
665 -662 0
665 -663 0
665 -664 0
665 -84 0
665 -79 0
665 -74 0
665 -61 0
665 -60 0
665 -43 0
665 -42 0
-47 65 664 0
-50 -65 663 0
-10 -86 662 0
-48 -69 661 0
-45 69 660 0
-49 -85 659 0
-46 85 658 0
-7 86 657 0
656 -648 0
656 -649 0
656 -650 0
656 -651 0
656 -652 0
656 -653 0
656 -654 0
656 -655 0
656 -83 0
656 -78 0
656 -73 0
656 -58 0
656 -57 0
656 -30 0
656 -29 0
-34 65 655 0
-37 -65 654 0
-33 85 653 0
-36 -85 652 0
-8 -86 651 0
-35 -69 650 0
-32 69 649 0
-6 86 648 0
647 -639 0
647 -640 0
647 -641 0
647 -642 0
647 -643 0
647 -644 0
647 -645 0
647 -646 0
647 -80 0
647 -75 0
647 -72 0
647 -52 0
647 -51 0
647 -16 0
647 -15 0
-21 65 646 0
-24 -65 645 0
-23 -85 644 0
-20 85 643 0
-9 -86 642 0
-22 -69 641 0
-19 69 640 0
-5 86 639 0
-637 -628 -619 638 0
637 -629 0
637 -630 0
637 -631 0
637 -632 0
637 -633 0
637 -634 0
637 -635 0
637 -636 0
637 -72 0
637 -51 0
637 -17 0
637 -16 0
637 -15 0
637 -14 0
637 -13 0
-23 -63 636 0
-20 63 635 0
-22 -65 634 0
-9 -64 633 0
-5 64 632 0
-18 -24 631 0
-21 18 630 0
-19 65 629 0
628 -620 0
628 -621 0
628 -622 0
628 -623 0
628 -624 0
628 -625 0
628 -626 0
628 -627 0
628 -74 0
628 -60 0
628 -44 0
628 -43 0
628 -42 0
628 -41 0
628 -40 0
-49 -63 627 0
-46 63 626 0
-48 -65 625 0
-10 -64 624 0
-7 64 623 0
-18 -50 622 0
18 -47 621 0
-45 65 620 0
619 -611 0
619 -612 0
619 -613 0
619 -614 0
619 -615 0
619 -616 0
619 -617 0
619 -618 0
619 -73 0
619 -57 0
619 -31 0
619 -30 0
619 -29 0
619 -28 0
619 -27 0
-36 -63 618 0
-33 63 617 0
-35 -65 616 0
-6 64 615 0
-8 -64 614 0
-34 18 613 0
-18 -37 612 0
-32 65 611 0
610 -582 0
610 -600 0
610 -608 0
610 -18 0
609 -567 0
609 -592 0
609 -608 0
609 -56 0
-607 -604 608 0
607 -605 0
607 -606 0
607 -575 0
607 -576 0
607 -55 0
-82 -596 606 0
-77 -573 605 0
604 -602 0
604 -603 0
604 -560 0
604 -561 0
604 -54 0
-63 -558 603 0
-67 -588 602 0
601 -551 0
601 -592 0
601 -600 0
601 -65 0
-599 -595 600 0
599 -597 0
599 -598 0
599 -571 0
599 -572 0
599 -64 0
-76 -577 598 0
-85 -596 597 0
596 -579 0
596 -580 0
596 -68 0
595 -593 0
595 -594 0
595 -540 0
595 -541 0
595 -63 0
-54 -546 594 0
-67 -584 593 0
-591 -587 592 0
591 -589 0
591 -590 0
591 -556 0
591 -557 0
591 -76 0
-64 -562 590 0
-85 -588 589 0
588 -564 0
588 -565 0
588 -81 0
587 -585 0
587 -586 0
587 -544 0
587 -545 0
587 -77 0
-55 -542 586 0
-82 -584 585 0
584 -548 0
584 -549 0
584 -86 0
583 -551 0
583 -567 0
583 -582 0
583 -69 0
-581 -570 582 0
581 -574 0
581 -578 0
581 -579 0
581 -580 0
581 -68 0
-55 -81 580 0
-64 -86 579 0
-81 -577 578 0
577 -575 0
577 -576 0
577 -55 0
-68 -82 576 0
-64 -77 575 0
-86 -573 574 0
573 -571 0
573 -572 0
573 -64 0
-55 -76 572 0
-68 -85 571 0
570 -568 0
570 -569 0
570 -533 0
570 -534 0
570 -67 0
-54 -531 569 0
-63 -552 568 0
-566 -555 567 0
566 -559 0
566 -563 0
566 -564 0
566 -565 0
566 -81 0
-54 -68 565 0
-76 -86 564 0
-68 -562 563 0
562 -560 0
562 -561 0
562 -54 0
-63 -76 561 0
-67 -81 560 0
-86 -558 559 0
558 -556 0
558 -557 0
558 -76 0
-54 -64 557 0
-81 -85 556 0
555 -553 0
555 -554 0
555 -529 0
555 -530 0
555 -82 0
-55 -535 554 0
-77 -552 553 0
552 -537 0
552 -538 0
552 -85 0
-550 -539 551 0
550 -543 0
550 -547 0
550 -548 0
550 -549 0
550 -86 0
-63 -68 549 0
-77 -81 548 0
-81 -546 547 0
546 -544 0
546 -545 0
546 -77 0
-55 -63 545 0
-82 -86 544 0
-68 -542 543 0
542 -540 0
542 -541 0
542 -63 0
-67 -86 541 0
-54 -77 540 0
539 -532 0
539 -536 0
539 -537 0
539 -538 0
539 -85 0
-76 -82 538 0
-64 -67 537 0
-64 -535 536 0
535 -533 0
535 -534 0
535 -67 0
-63 -85 534 0
-54 -82 533 0
-76 -531 532 0
531 -529 0
531 -530 0
531 -82 0
-55 -67 530 0
-77 -85 529 0
-527 -518 -486 -464 -169 528 0
527 -522 0
527 -526 0
527 -457 0
527 -333 0
527 -350 0
527 -459 0
527 -351 0
-525 -373 526 0
525 -523 0
525 -524 0
525 -396 0
525 -397 0
525 -398 0
-229 -228 -227 -226 -349 -514 524 0
-229 -228 -227 -226 -197 -436 523 0
-521 -465 522 0
521 -466 0
521 -467 0
521 -519 0
521 -520 0
521 -468 0
-229 -228 -227 -226 -332 -505 520 0
-229 -228 -227 -226 -197 -474 519 0
518 -503 0
518 -508 0
518 -512 0
518 -517 0
-516 -373 517 0
516 -513 0
516 -417 0
516 -434 0
516 -515 0
516 -435 0
-229 -228 -227 -226 -433 -514 515 0
514 -438 0
514 -439 0
514 -440 0
-229 -228 -227 -226 -416 -399 513 0
-460 -511 512 0
511 -509 0
511 -443 0
511 -444 0
511 -510 0
511 -445 0
-229 -228 -227 -226 -395 -451 510 0
-229 -228 -227 -226 -433 -481 509 0
-507 -465 508 0
507 -504 0
507 -506 0
507 -471 0
507 -472 0
507 -473 0
-229 -228 -227 -226 -395 -505 506 0
505 -476 0
505 -477 0
505 -478 0
-229 -228 -227 -226 -416 -469 504 0
-229 -228 -227 -226 -502 503 0
502 -491 0
502 -496 0
502 -501 0
17 16 15 14 11 52 72 -500 -499 -498 -177 -379 -497 -176 -376 501 0
500 65 0
500 9 0
499 -65 0
499 5 0
498 65 0
498 23 0
497 -65 0
497 20 0
38 61 43 74 44 42 41 -495 -195 -393 -494 -493 -492 -194 -390 496 0
495 65 0
495 49 0
494 46 0
494 -65 0
493 65 0
493 10 0
492 -65 0
492 7 0
25 28 31 30 29 58 73 -490 -489 -488 -186 -386 -487 -185 -383 491 0
490 -65 0
490 6 0
489 65 0
489 8 0
488 65 0
488 36 0
487 -65 0
487 33 0
486 -480 0
486 -485 0
486 -316 0
486 -369 0
486 -370 0
486 -371 0
486 -372 0
-460 -484 485 0
484 -482 0
484 -483 0
484 -448 0
484 -449 0
484 -450 0
-229 -228 -227 -226 -252 -446 483 0
-229 -228 -227 -226 -315 -481 482 0
481 -453 0
481 -454 0
481 -455 0
-479 -465 480 0
479 -470 0
479 -475 0
479 -476 0
479 -477 0
479 -478 0
-229 -228 -227 -226 -315 478 0
-229 -228 -227 -226 -252 -433 477 0
-229 -228 -227 -226 -368 -349 476 0
-229 -228 -227 -226 -252 -474 475 0
474 -471 0
474 -472 0
474 -473 0
-229 -228 -227 -226 -433 473 0
-229 -228 -227 -226 -315 -395 472 0
-229 -228 -227 -226 -349 -416 471 0
-229 -228 -227 -226 -368 -469 470 0
469 -466 0
469 -467 0
469 -468 0
-229 -228 -227 -226 -349 468 0
-229 -228 -227 -226 -315 -332 467 0
-229 -228 -227 -226 -197 -433 466 0
465 -462 0
465 -463 0
465 -230 0
465 -275 0
465 -292 0
464 -442 0
464 -461 0
464 -462 0
464 -463 0
464 -230 0
464 -275 0
464 -292 0
-229 -228 -227 -226 -274 -458 463 0
-229 -228 -227 -226 -225 -352 462 0
-460 -456 461 0
460 -457 0
460 -333 0
460 -350 0
460 -459 0
460 -351 0
-229 -228 -227 -226 -458 -332 459 0
458 -370 0
458 -371 0
458 -372 0
-229 -228 -227 -226 -349 -293 457 0
456 -447 0
456 -452 0
456 -453 0
456 -454 0
456 -455 0
-229 -228 -227 -226 -225 455 0
-229 -228 -227 -226 -291 -416 454 0
-229 -228 -227 -226 -274 -368 453 0
-229 -228 -227 -226 -274 -451 452 0
451 -448 0
451 -449 0
451 -450 0
-229 -228 -227 -226 -368 450 0
-229 -228 -227 -226 -225 -315 449 0
-229 -228 -227 -226 -252 -416 448 0
-229 -228 -227 -226 -291 -446 447 0
446 -443 0
446 -444 0
446 -445 0
-229 -228 -227 -226 -416 445 0
-229 -228 -227 -226 -225 -433 444 0
-229 -228 -227 -226 -368 -395 443 0
-441 -373 442 0
441 -400 0
441 -437 0
441 -438 0
441 -439 0
441 -440 0
-229 -228 -227 -226 -274 440 0
-229 -228 -227 -226 -291 -395 439 0
-229 -228 -227 -226 -225 -332 438 0
-229 -228 -227 -226 -291 -436 437 0
436 -417 0
436 -434 0
436 -435 0
-229 -228 -227 -226 -395 435 0
-229 -228 -227 -226 -274 -433 434 0
433 -422 0
433 -427 0
433 -432 0
13 17 16 15 14 51 72 -431 -430 -379 -429 -428 -295 -294 -376 432 0
431 63 0
431 23 0
430 -63 0
430 20 0
429 64 0
429 9 0
428 -64 0
428 5 0
43 40 60 74 44 42 41 -426 -425 -393 -424 -423 -309 -308 -390 427 0
426 63 0
426 49 0
425 46 0
425 -63 0
424 64 0
424 10 0
423 -64 0
423 7 0
28 31 30 29 27 57 73 -421 -420 -386 -419 -418 -302 -301 -383 422 0
421 63 0
421 36 0
420 -63 0
420 33 0
419 -64 0
419 6 0
418 64 0
418 8 0
-229 -228 -227 -226 -332 -416 417 0
416 -405 0
416 -410 0
416 -415 0
61 62 60 74 71 44 41 -393 -414 -390 -413 -412 -411 -217 -216 415 0
414 -85 0
414 7 0
413 46 0
413 -86 0
412 85 0
412 10 0
411 86 0
411 49 0
28 31 59 58 57 73 70 -386 -383 -409 -408 -407 -406 -208 -207 410 0
409 -86 0
409 33 0
408 86 0
408 36 0
407 85 0
407 8 0
406 -85 0
406 6 0
17 14 53 52 66 51 72 -379 -200 -376 -404 -403 -402 -401 -198 405 0
404 86 0
404 23 0
403 -86 0
403 20 0
402 85 0
402 9 0
401 -85 0
401 5 0
-229 -228 -227 -226 -225 -399 400 0
399 -396 0
399 -397 0
399 -398 0
-229 -228 -227 -226 -332 398 0
-229 -228 -227 -226 -274 -349 397 0
-229 -228 -227 -226 -197 -395 396 0
395 -380 0
395 -387 0
395 -394 0
61 43 60 79 74 42 41 -393 -392 -391 -272 -271 -390 -389 -388 394 0
393 65 0
393 48 0
392 76 0
392 10 0
391 -76 0
391 7 0
390 45 0
390 -65 0
389 77 0
389 49 0
388 46 0
388 -77 0
28 30 29 58 57 78 73 -386 -263 -262 -385 -384 -383 -382 -381 387 0
386 65 0
386 35 0
385 -76 0
385 6 0
384 76 0
384 8 0
383 -65 0
383 32 0
382 77 0
382 36 0
381 -77 0
381 33 0
16 15 14 52 51 75 72 -379 -256 -255 -378 -377 -376 -375 -374 380 0
379 65 0
379 22 0
378 76 0
378 9 0
377 -76 0
377 5 0
376 -65 0
376 19 0
375 77 0
375 23 0
374 -77 0
374 20 0
373 -316 0
373 -369 0
373 -370 0
373 -371 0
373 -372 0
-229 -228 -227 -226 -291 -315 372 0
-229 -228 -227 -226 -252 371 0
-229 -228 -227 -226 -197 -368 370 0
-229 -228 -227 -226 -368 -352 369 0
368 -357 0
368 -362 0
368 -367 0
61 43 60 74 71 44 41 -250 -366 -217 -247 -216 -365 -364 -363 367 0
366 49 0
366 81 0
365 46 0
365 -81 0
364 82 0
364 10 0
363 -82 0
363 7 0
28 31 30 58 57 73 70 -243 -361 -360 -208 -239 -207 -359 -358 362 0
361 -82 0
361 6 0
360 82 0
360 8 0
359 81 0
359 36 0
358 -81 0
358 33 0
17 16 14 52 66 51 72 -236 -356 -355 -354 -353 -200 -232 -198 357 0
356 81 0
356 23 0
355 -81 0
355 20 0
354 82 0
354 9 0
353 -82 0
353 5 0
352 -333 0
352 -350 0
352 -351 0
-229 -228 -227 -226 -197 351 0
-229 -228 -227 -226 -291 -349 350 0
349 -338 0
349 -343 0
349 -348 0
43 40 60 74 84 44 42 -347 -346 -309 -308 -345 -344 -192 -191 348 0
347 68 0
347 10 0
346 -68 0
346 7 0
345 46 0
345 -67 0
344 49 0
344 67 0
31 30 29 27 57 73 83 -342 -341 -302 -301 -340 -181 -339 -180 343 0
342 -68 0
342 6 0
341 68 0
341 8 0
340 -67 0
340 33 0
339 67 0
339 36 0
13 17 16 15 51 72 80 -337 -336 -335 -334 -295 -294 -172 -171 338 0
337 68 0
337 9 0
336 -68 0
336 5 0
335 67 0
335 23 0
334 -67 0
334 20 0
-229 -228 -227 -226 -252 -332 333 0
332 -321 0
332 -326 0
332 -331 0
61 43 60 74 84 44 42 -272 -271 -330 -329 -328 -192 -191 -327 331 0
330 81 0
330 10 0
329 -81 0
329 7 0
328 82 0
328 49 0
327 46 0
327 -82 0
31 30 29 58 57 73 83 -263 -262 -325 -324 -323 -181 -180 -322 326 0
325 -81 0
325 6 0
324 81 0
324 8 0
323 -82 0
323 33 0
322 82 0
322 36 0
17 16 15 52 51 72 80 -256 -255 -320 -319 -318 -317 -172 -171 321 0
320 -82 0
320 20 0
319 82 0
319 23 0
318 81 0
318 9 0
317 -81 0
317 5 0
-229 -228 -227 -226 -315 -293 316 0
315 -300 0
315 -307 0
315 -314 0
43 40 60 79 74 42 41 -313 -312 -250 -311 -310 -309 -308 -247 314 0
313 49 0
313 54 0
312 46 0
312 -54 0
311 55 0
311 10 0
310 -55 0
310 7 0
309 50 0
309 18 0
308 47 0
308 -18 0
28 30 29 27 57 78 73 -306 -305 -243 -304 -303 -302 -301 -239 307 0
306 54 0
306 36 0
305 -54 0
305 33 0
304 -55 0
304 6 0
303 55 0
303 8 0
302 34 0
302 -18 0
301 37 0
301 18 0
13 16 15 14 51 75 72 -299 -298 -236 -297 -296 -295 -294 -232 300 0
299 54 0
299 23 0
298 -54 0
298 20 0
297 55 0
297 9 0
296 -55 0
296 5 0
295 18 0
295 24 0
294 21 0
294 -18 0
293 -230 0
293 -275 0
293 -292 0
-229 -228 -227 -226 -291 292 0
291 -280 0
291 -285 0
291 -290 0
39 61 43 60 44 42 41 -195 -194 -289 -288 -287 -286 -219 -218 290 0
289 64 0
289 49 0
288 46 0
288 -64 0
287 63 0
287 10 0
286 -63 0
286 7 0
28 31 30 29 26 58 57 -284 -283 -186 -185 -212 -282 -281 -209 285 0
284 -63 0
284 6 0
283 63 0
283 8 0
282 64 0
282 36 0
281 -64 0
281 33 0
17 16 15 14 12 52 51 -279 -278 -177 -176 -203 -277 -276 -199 280 0
279 63 0
279 9 0
278 -63 0
278 5 0
277 64 0
277 23 0
276 -64 0
276 20 0
-229 -228 -227 -226 -274 -252 275 0
274 -259 0
274 -266 0
274 -273 0
39 61 62 60 44 42 41 -272 -271 -270 -269 -268 -267 -219 -218 273 0
272 50 0
272 56 0
271 47 0
271 -56 0
270 54 0
270 10 0
269 -54 0
269 7 0
268 49 0
268 55 0
267 46 0
267 -55 0
28 31 29 26 59 58 57 -265 -264 -263 -262 -212 -261 -260 -209 266 0
265 -54 0
265 6 0
264 54 0
264 8 0
263 56 0
263 37 0
262 -56 0
262 34 0
261 55 0
261 36 0
260 -55 0
260 33 0
17 15 14 12 53 52 51 -258 -257 -256 -255 -203 -254 -253 -199 259 0
258 54 0
258 9 0
257 -54 0
257 5 0
256 56 0
256 24 0
255 -56 0
255 21 0
254 55 0
254 23 0
253 -55 0
253 20 0
252 -237 0
252 -244 0
252 -251 0
61 62 60 74 44 42 41 -195 -250 -194 -249 -248 -247 -246 -245 251 0
250 48 0
250 56 0
249 77 0
249 10 0
248 -77 0
248 7 0
247 45 0
247 -56 0
246 49 0
246 76 0
245 46 0
245 -76 0
28 31 29 59 58 57 73 -186 -243 -185 -242 -241 -240 -239 -238 244 0
243 56 0
243 35 0
242 -76 0
242 33 0
241 -77 0
241 6 0
240 77 0
240 8 0
239 -56 0
239 32 0
238 76 0
238 36 0
17 15 14 53 52 51 72 -177 -236 -176 -235 -234 -233 -232 -231 237 0
236 56 0
236 22 0
235 76 0
235 23 0
234 77 0
234 9 0
233 -77 0
233 5 0
232 -56 0
232 19 0
231 -76 0
231 20 0
-229 -228 -227 -226 -225 -197 230 0
229 6 0
229 -5 0
228 9 0
228 -8 0
227 7 0
227 -6 0
226 8 0
226 -10 0
225 -206 0
225 -215 0
225 -224 0
39 61 43 60 71 44 41 -223 -222 -221 -220 -219 -218 -217 -216 224 0
223 49 0
223 68 0
222 46 0
222 -68 0
221 67 0
221 10 0
220 -67 0
220 7 0
219 48 0
219 18 0
218 45 0
218 -18 0
217 47 0
217 -69 0
216 69 0
216 50 0
28 31 30 26 58 57 70 -214 -213 -212 -211 -210 -209 -208 -207 215 0
214 68 0
214 36 0
213 -68 0
213 33 0
212 35 0
212 18 0
211 67 0
211 8 0
210 -67 0
210 6 0
209 32 0
209 -18 0
208 -69 0
208 34 0
207 69 0
207 37 0
17 16 14 12 52 66 51 -205 -204 -203 -202 -201 -200 -199 -198 206 0
205 68 0
205 23 0
204 -68 0
204 20 0
203 19 0
203 -18 0
202 67 0
202 9 0
201 -67 0
201 5 0
200 69 0
200 24 0
199 18 0
199 22 0
198 -69 0
198 21 0
197 -178 0
197 -187 0
197 -196 0
61 43 60 79 74 84 42 -195 -194 -193 -192 -191 -190 -189 -188 196 0
195 47 0
195 -65 0
194 65 0
194 50 0
193 86 0
193 10 0
192 48 0
192 69 0
191 45 0
191 -69 0
190 85 0
190 49 0
189 46 0
189 -85 0
188 -86 0
188 7 0
30 29 58 57 78 73 83 -186 -185 -184 -183 -182 -181 -180 -179 187 0
186 -65 0
186 34 0
185 65 0
185 37 0
184 -85 0
184 33 0
183 85 0
183 36 0
182 86 0
182 8 0
181 69 0
181 35 0
180 -69 0
180 32 0
179 -86 0
179 6 0
16 15 52 51 75 72 80 -177 -176 -175 -174 -173 -172 -171 -170 178 0
177 -65 0
177 21 0
176 65 0
176 24 0
175 85 0
175 23 0
174 -85 0
174 20 0
173 86 0
173 9 0
172 69 0
172 22 0
171 -69 0
171 19 0
170 -86 0
170 5 0
169 -141 0
169 -159 0
169 -167 0
169 -168 0
18 -166 -158 -140 168 0
56 -166 -150 -125 167 0
166 -162 0
166 -165 0
55 -134 -133 -164 -163 165 0
164 -154 0
164 82 0
163 -131 0
163 77 0
54 -119 -118 -161 -160 162 0
161 -116 0
161 63 0
160 -146 0
160 67 0
65 -158 -150 -109 159 0
158 -153 0
158 -157 0
64 -130 -129 -156 -155 157 0
156 -135 0
156 76 0
155 -154 0
155 85 0
68 -138 -137 154 0
63 -99 -98 -152 -151 153 0
152 -104 0
152 54 0
151 -142 0
151 67 0
150 -145 0
150 -149 0
76 -115 -114 -148 -147 149 0
148 -120 0
148 64 0
147 -146 0
147 85 0
81 -123 -122 146 0
77 -103 -102 -144 -143 145 0
144 -100 0
144 55 0
143 -142 0
143 82 0
86 -107 -106 142 0
69 -140 -125 -109 141 0
140 -128 0
140 -139 0
68 -138 -137 -136 -132 139 0
138 81 0
138 55 0
137 86 0
137 64 0
136 -135 0
136 81 0
55 -134 -133 135 0
134 82 0
134 68 0
133 77 0
133 64 0
132 -131 0
132 86 0
64 -130 -129 131 0
130 76 0
130 55 0
129 85 0
129 68 0
67 -92 -91 -127 -126 128 0
127 -89 0
127 54 0
126 -110 0
126 63 0
125 -113 0
125 -124 0
81 -123 -122 -121 -117 124 0
123 68 0
123 54 0
122 86 0
122 76 0
121 -120 0
121 68 0
54 -119 -118 120 0
119 63 0
119 76 0
118 67 0
118 81 0
117 -116 0
117 86 0
76 -115 -114 116 0
115 64 0
115 54 0
114 85 0
114 81 0
82 -88 -87 -112 -111 113 0
112 -93 0
112 55 0
111 -110 0
111 77 0
85 -96 -95 110 0
109 -97 0
109 -108 0
86 -107 -106 -105 -101 108 0
107 63 0
107 68 0
106 77 0
106 81 0
105 -104 0
105 81 0
77 -103 -102 104 0
103 63 0
103 55 0
102 82 0
102 86 0
101 -100 0
101 68 0
63 -99 -98 100 0
99 86 0
99 67 0
98 77 0
98 54 0
85 -96 -95 -94 -90 97 0
96 82 0
96 76 0
95 64 0
95 67 0
94 -93 0
94 64 0
67 -92 -91 93 0
92 85 0
92 63 0
91 82 0
91 54 0
90 -89 0
90 76 0
82 -88 -87 89 0
88 67 0
88 55 0
87 85 0
87 77 0
